(set-info :smt-lib-version 2.7)
(set-logic QF_EIA)
(set-info :source |
Generated by: Florian Frohn
Generator: LoAT
Application: proving lower bounds on the worst-case runtime of transition systems
Target solver: SwInE
Time limit: 1.0
Benchmarks generated by the verification tool LoAT to evaluate the SMT solver
SwInE. We extracted all benchmarks with exponentiation that were generated by
LoAT when analyzing the examples from the category LIA-Lin (linear CHCs with
linear integer arithmetic) of the CHC competitions 2022 and 2023, and when
analyzing the examples from the categories "Termination of Integer Transition
Systems" and "Complexity of Integer Transition Systems" of the Termination and
Complexity Competition 2024. From the entire set, we selected those where
* SwInE v0.1.0 or SwInE-Z3 v0.1.2 failed or needed more than 1 second, or
* SwInE-Z3 v0.1.2 failed without phasing, a technique to prevent SwInE from
  computing with huge constants (described here
  https://arxiv.org/abs/2502.04761)
If several selected benchmarks only differed in lines not containing
exponentiation, we kept only one of them. This benchmark is known to be
satisfiable with the slightly different semantics of exponentiation used by the
versions of SwInE mentioned above.
|)
(set-info :license "https://creativecommons.org/licenses/by/4.0/")
(set-info :category "industrial")
(set-info :status unknown)

(declare-fun i1 () Int)
(declare-fun it1296 () Int)
(declare-fun i2 () Int)
(declare-fun it1297 () Int)
(declare-fun i3 () Int)
(declare-fun it1298 () Int)
(declare-fun it1299 () Int)
(declare-fun i4 () Int)
(declare-fun i5 () Int)
(declare-fun it1300 () Int)
(declare-fun i6 () Int)
(declare-fun it1301 () Int)
(declare-fun i7 () Int)
(declare-fun it1302 () Int)
(declare-fun it1310 () Int)
(declare-fun it1311 () Int)
(declare-fun it1312 () Int)
(declare-fun it1313 () Int)
(declare-fun it1314 () Int)
(declare-fun it1315 () Int)
(declare-fun it1316 () Int)
(declare-fun it1543 () Int)
(declare-fun it1544 () Int)
(declare-fun it1545 () Int)
(declare-fun it1546 () Int)
(declare-fun it1547 () Int)
(declare-fun it1548 () Int)
(declare-fun it1549 () Int)
(declare-fun it316 () Int)
(declare-fun it1555 () Int)
(declare-fun it1556 () Int)
(declare-fun it1557 () Int)
(declare-fun it1558 () Int)
(declare-fun it1559 () Int)
(declare-fun it1560 () Int)
(declare-fun it1561 () Int)
(assert (= (+ i1 (- 1)) 0))
(assert (= (+ it1296 (- 5)) 0))
(assert (= (+ it1297 (* i2 (- 1)) (- 4)) 0))
(assert (= (+ it1298 (* i3 (- 1))) 0))
(assert (= (+ (* i4 (- 1)) it1299) 0))
(assert (= (+ it1300 (* i5 (- 1))) 0))
(assert (= (+ it1301 (* i6 (- 1))) 0))
(assert (= (+ it1302 (* i7 (- 1))) 0))
(assert (and (= (+ it1296 (- 5)) 0) (> (+ it1299 (- 2)) 0)))
(assert (= (+ it1310 (- 18)) 0))
(assert (= (+ (* it1297 (- 1)) it1311 (- 12)) 0))
(assert (= (+ (* it1298 (- 1)) it1312) 0))
(assert (= (+ it1313 (* it1299 (- 1))) 0))
(assert (= (+ (* it1300 (- 1)) it1314) 0))
(assert (= it1315 0))
(assert (= (+ it1316 (* it1302 (- 1))) 0))
(assert (and (<= (+ (* it1313 (- 1)) it1315 2) 0) (= (+ it1310 (- 18)) 0)))
(assert (= (+ it1543 (- 20)) 0))
(assert (= (+ it1544 (* it1311 (- 1)) (- 2)) 0))
(assert (= (+ it1545 (* it1312 (- 1))) 0))
(assert (= (+ (* it1313 (- 1)) it1546) 0))
(assert (= it1547 0))
(assert (= (+ it1548 (* it1315 (- 1))) 0))
(assert (= (+ (* it1316 (- 1)) it1549) 0))
(assert (let ((a!1 (+ (+ 0 (+ (* it1548 (- 1)) it1546))
              (* (** 2 it316) (+ 0 (- 2)))
              (* (+ 0 it1547) (** 2 (+ it316 (- 1))) (+ 0 (- 2)))
              (+ 0 1))))
  (and (> (+ (* it1547 (- 2)) (* it1548 (- 1)) it1546 (- 3)) 0)
       (> a!1 (+ 0 0))
       (>= (+ (* it1547 (- 2)) (* it1548 (- 1)) it1546 (- 3)) 0)
       (>= (+ (* it1543 (- 1)) 20) 0)
       (>= (+ it1543 (- 20)) 0)
       (>= a!1 (+ 0 0))
       (>= (+ it316 (- 1)) 0))))
(assert (= (+ (* it1543 (- 1)) it1555) 0))
(assert (= (+ (* it1544 (- 1)) it1556 (* it316 (- 6))) 0))
(assert (= (+ (* it1545 (- 1)) it1557) 0))
(assert (= (+ (* it1546 (- 1)) it1558) 0))
(assert (let ((a!1 (+ (+ 0 it1559)
              (* (** 2 (+ it316 1)) (+ 0 (- 1)))
              (* (+ 0 it1547) (** 2 it316) (+ 0 (- 1)))
              (+ 0 2))))
  (= a!1 (+ 0 0))))
(assert (= (+ (* it1548 (- 1)) it1560) 0))
(assert (let ((a!1 (+ (+ 0 it1561)
              (* (** 2 it316) (+ 0 (- 2)))
              (* (+ 0 it1547) (** 2 (+ it316 (- 1))) (+ 0 (- 2)))
              (+ 0 2))))
  (= a!1 (+ 0 0))))
(assert (and (> (+ (* it1559 2) it1560 (* it1558 (- 1)) 3) 0) (= (+ it1555 (- 20)) 0)))
(check-sat)
(exit)
